Si Primitive 2 atoms
   1.0
     0.0000000000000000    2.7167800154576765    2.7167800154576765
     2.7167800154576765    0.0000000000000000    2.7167800154576765
     2.7167800154576765    2.7167800154576765    0.0000000000000000
   Si
   2
Direct
   0.0000000000000000  0.0000000000000000  0.0000000000000000
   0.2500000000000000  0.2500000000000000  0.2500000000000000